param M := 5;  # Number of rows
param N := 4;  # Number of columns
param PIRELLONE :  1 2 3 4 :=
           1   1 0 0 0
           2   1 0 0 0
           3   1 0 0 0
           4   0 1 1 1
           5   0 1 1 1;
end;
